6123 7693
7098 2089
2822 5801
7960 8174
4750 117
4533 4442
7918 2508
1109 4325
6794 670
9380 6467
6342 531
7288 2145
6154 3909
5670 966
9544 8829
4385 943
7429 2023
8923 751
4416 6632
2294 7932
4449 1714
9638 8232
2591 6892
5710 7941
9944 3597
594 5938
113 67
1548 1763
8628 4958
870 5985
8641 369
7866 4647
5163 144
573 1451
6314 7445
9192 7861
3040 713
8200 1508
2217 9057
9386 7125
8181 1809
3183 4319
5126 5903
9936 8931
3613 1886
3457 4089
7866 8118
694 3220
1074 4194
8082 728
